sat
(objectives
 (total_wait 8)
)
((rprim_1_1 18))
((rprim_1_2 1))
((rprim_1_3 3))
((rprim_1_4 16))
((rprim_1_5 14))
((rprim_1_6 1))
((rprim_1_7 7))
((rprim_1_8 15))
((rprim_1_9 6))
((rprim_1_10 1))
((rprim_1_11 21))
((rprim_1_12 13))
((rprim_1_13 7))
((rprim_1_14 21))
((rprim_1_15 2))
((rprim_1_16 21))
((rprim_1_17 18))
((rprim_1_18 1))
((rprim_1_19 1))
((rprim_2_1 15))
((rprim_2_2 3))
((rprim_2_3 1))
((rprim_2_4 16))
((rprim_2_5 12))
((rprim_2_6 8))
((rprim_2_7 2))
((rprim_2_8 20))
((rprim_2_9 18))
((rprim_2_10 18))
((rprim_2_11 18))
((rprim_2_12 1))
((rprim_2_13 6))
((rprim_2_14 1))
((rprim_2_15 20))
((rprim_2_16 16))
((rprim_2_17 3))
((rprim_2_18 16))
((rprim_2_19 1))
((rx_1_1 0))
((ry_1_1 7))
((rx_1_2 3))
((ry_1_2 7))
((rx_1_3 3))
((ry_1_3 7))
((rx_1_4 3))
((ry_1_4 6))
((rx_1_5 1))
((ry_1_5 4))
((rx_1_6 3))
((ry_1_6 6))
((rx_1_7 3))
((ry_1_7 6))
((rx_1_8 2))
((ry_1_8 7))
((rx_1_9 0))
((ry_1_9 9))
((rx_1_10 1))
((ry_1_10 10))
((rx_1_11 1))
((ry_1_11 10))
((rx_1_12 1))
((ry_1_12 7))
((rx_1_13 1))
((ry_1_13 5))
((rx_1_14 0))
((ry_1_14 6))
((rx_1_15 0))
((ry_1_15 3))
((rx_1_16 1))
((ry_1_16 3))
((rx_1_17 1))
((ry_1_17 0))
((rx_1_18 4))
((ry_1_18 0))
((rx_1_19 4))
((ry_1_19 0))
((rx_1_20 4))
((ry_1_20 0))
((rx_2_1 12))
((ry_2_1 7))
((rx_2_2 10))
((ry_2_2 9))
((rx_2_3 10))
((ry_2_3 8))
((rx_2_4 10))
((ry_2_4 8))
((rx_2_5 8))
((ry_2_5 6))
((rx_2_6 6))
((ry_2_6 6))
((rx_2_7 5))
((ry_2_7 5))
((rx_2_8 6))
((ry_2_8 5))
((rx_2_9 3))
((ry_2_9 5))
((rx_2_10 6))
((ry_2_10 5))
((rx_2_11 9))
((ry_2_11 5))
((rx_2_12 12))
((ry_2_12 5))
((rx_2_13 12))
((ry_2_13 5))
((rx_2_14 13))
((ry_2_14 6))
((rx_2_15 13))
((ry_2_15 6))
((rx_2_16 10))
((ry_2_16 6))
((rx_2_17 8))
((ry_2_17 4))
((rx_2_18 8))
((ry_2_18 3))
((rx_2_19 6))
((ry_2_19 1))
((rx_2_20 6))
((ry_2_20 1))
((total_rcost 0))
((wprim_1_1 1))
((wprim_1_2 1))
((wprim_1_3 1))
((wprim_1_4 1))
((wprim_1_5 1))
((wprim_1_6 2))
((wprim_1_7 0))
((wprim_1_8 1))
((wprim_1_9 1))
((wprim_1_10 1))
((wprim_1_11 1))
((wprim_1_12 1))
((wprim_1_13 1))
((wprim_1_14 1))
((wprim_1_15 1))
((wprim_1_16 1))
((wprim_1_17 1))
((wprim_1_18 2))
((wprim_1_19 1))
((wprim_2_1 1))
((wprim_2_2 1))
((wprim_2_3 1))
((wprim_2_4 1))
((wprim_2_5 1))
((wprim_2_6 1))
((wprim_2_7 1))
((wprim_2_8 1))
((wprim_2_9 1))
((wprim_2_10 1))
((wprim_2_11 1))
((wprim_2_12 2))
((wprim_2_13 1))
((wprim_2_14 1))
((wprim_2_15 1))
((wprim_2_16 1))
((wprim_2_17 1))
((wprim_2_18 1))
((wprim_2_19 1))
((wprim_3_1 1))
((wprim_3_2 1))
((wprim_3_3 2))
((wprim_3_4 0))
((wprim_3_5 1))
((wprim_3_6 1))
((wprim_3_7 1))
((wprim_3_8 1))
((wprim_3_9 1))
((wprim_3_10 1))
((wprim_3_11 1))
((wprim_3_12 1))
((wprim_3_13 1))
((wprim_3_14 2))
((wprim_3_15 1))
((wprim_3_16 1))
((wprim_3_17 1))
((wprim_3_18 1))
((wprim_3_19 1))
((wprim_4_1 1))
((wprim_4_2 1))
((wprim_4_3 1))
((wprim_4_4 1))
((wprim_4_5 1))
((wprim_4_6 1))
((wprim_4_7 1))
((wprim_4_8 1))
((wprim_4_9 1))
((wprim_4_10 2))
((wprim_4_11 1))
((wprim_4_12 1))
((wprim_4_13 1))
((wprim_4_14 1))
((wprim_4_15 1))
((wprim_4_16 1))
((wprim_4_17 1))
((wprim_4_18 1))
((wprim_4_19 1))
((wtraj_1_1 1))
((wtraj_1_2 2))
((wtraj_1_3 3))
((wtraj_1_4 4))
((wtraj_1_5 1))
((wtraj_1_6 2))
((wtraj_1_7 2))
((wtraj_1_8 2))
((wtraj_1_9 3))
((wtraj_1_10 4))
((wtraj_1_11 1))
((wtraj_1_12 2))
((wtraj_1_13 3))
((wtraj_1_14 4))
((wtraj_1_15 1))
((wtraj_1_16 2))
((wtraj_1_17 3))
((wtraj_1_18 4))
((wtraj_1_19 4))
((wtraj_1_20 1))
((wtraj_2_1 1))
((wtraj_2_2 2))
((wtraj_2_3 3))
((wtraj_2_4 4))
((wtraj_2_5 5))
((wtraj_2_6 6))
((wtraj_2_7 1))
((wtraj_2_8 2))
((wtraj_2_9 3))
((wtraj_2_10 4))
((wtraj_2_11 5))
((wtraj_2_12 6))
((wtraj_2_13 6))
((wtraj_2_14 1))
((wtraj_2_15 2))
((wtraj_2_16 3))
((wtraj_2_17 4))
((wtraj_2_18 5))
((wtraj_2_19 6))
((wtraj_2_20 1))
((wtraj_3_1 1))
((wtraj_3_2 2))
((wtraj_3_3 3))
((wtraj_3_4 3))
((wtraj_3_5 3))
((wtraj_3_6 4))
((wtraj_3_7 1))
((wtraj_3_8 2))
((wtraj_3_9 3))
((wtraj_3_10 4))
((wtraj_3_11 1))
((wtraj_3_12 2))
((wtraj_3_13 3))
((wtraj_3_14 4))
((wtraj_3_15 4))
((wtraj_3_16 1))
((wtraj_3_17 2))
((wtraj_3_18 3))
((wtraj_3_19 4))
((wtraj_3_20 1))
((wtraj_4_1 1))
((wtraj_4_2 2))
((wtraj_4_3 3))
((wtraj_4_4 4))
((wtraj_4_5 5))
((wtraj_4_6 6))
((wtraj_4_7 1))
((wtraj_4_8 2))
((wtraj_4_9 3))
((wtraj_4_10 4))
((wtraj_4_11 4))
((wtraj_4_12 5))
((wtraj_4_13 6))
((wtraj_4_14 1))
((wtraj_4_15 2))
((wtraj_4_16 3))
((wtraj_4_17 4))
((wtraj_4_18 5))
((wtraj_4_19 6))
((wtraj_4_20 1))
((wx_1_1 7))
((wy_1_1 3))
((wx_1_2 4))
((wy_1_2 5))
((wx_1_3 1))
((wy_1_3 3))
((wx_1_4 4))
((wy_1_4 1))
((wx_1_5 7))
((wy_1_5 3))
((wx_1_6 4))
((wy_1_6 5))
((wx_1_7 4))
((wy_1_7 5))
((wx_1_8 4))
((wy_1_8 5))
((wx_1_9 1))
((wy_1_9 3))
((wx_1_10 4))
((wy_1_10 1))
((wx_1_11 7))
((wy_1_11 3))
((wx_1_12 4))
((wy_1_12 5))
((wx_1_13 1))
((wy_1_13 3))
((wx_1_14 4))
((wy_1_14 1))
((wx_1_15 7))
((wy_1_15 3))
((wx_1_16 4))
((wy_1_16 5))
((wx_1_17 1))
((wy_1_17 3))
((wx_1_18 4))
((wy_1_18 1))
((wx_1_19 4))
((wy_1_19 1))
((wx_1_20 7))
((wy_1_20 3))
((wx_2_1 11))
((wy_2_1 3))
((wx_2_2 13))
((wy_2_2 1))
((wx_2_3 15))
((wy_2_3 1))
((wx_2_4 17))
((wy_2_4 3))
((wx_2_5 15))
((wy_2_5 5))
((wx_2_6 13))
((wy_2_6 5))
((wx_2_7 11))
((wy_2_7 3))
((wx_2_8 13))
((wy_2_8 1))
((wx_2_9 15))
((wy_2_9 1))
((wx_2_10 17))
((wy_2_10 3))
((wx_2_11 15))
((wy_2_11 5))
((wx_2_12 13))
((wy_2_12 5))
((wx_2_13 13))
((wy_2_13 5))
((wx_2_14 11))
((wy_2_14 3))
((wx_2_15 13))
((wy_2_15 1))
((wx_2_16 15))
((wy_2_16 1))
((wx_2_17 17))
((wy_2_17 3))
((wx_2_18 15))
((wy_2_18 5))
((wx_2_19 13))
((wy_2_19 5))
((wx_2_20 11))
((wy_2_20 3))
((wx_3_1 17))
((wy_3_1 9))
((wx_3_2 14))
((wy_3_2 11))
((wx_3_3 11))
((wy_3_3 9))
((wx_3_4 11))
((wy_3_4 9))
((wx_3_5 11))
((wy_3_5 9))
((wx_3_6 14))
((wy_3_6 7))
((wx_3_7 17))
((wy_3_7 9))
((wx_3_8 14))
((wy_3_8 11))
((wx_3_9 11))
((wy_3_9 9))
((wx_3_10 14))
((wy_3_10 7))
((wx_3_11 17))
((wy_3_11 9))
((wx_3_12 14))
((wy_3_12 11))
((wx_3_13 11))
((wy_3_13 9))
((wx_3_14 14))
((wy_3_14 7))
((wx_3_15 14))
((wy_3_15 7))
((wx_3_16 17))
((wy_3_16 9))
((wx_3_17 14))
((wy_3_17 11))
((wx_3_18 11))
((wy_3_18 9))
((wx_3_19 14))
((wy_3_19 7))
((wx_3_20 17))
((wy_3_20 9))
((wx_4_1 7))
((wy_4_1 9))
((wx_4_2 5))
((wy_4_2 11))
((wx_4_3 3))
((wy_4_3 11))
((wx_4_4 1))
((wy_4_4 9))
((wx_4_5 3))
((wy_4_5 7))
((wx_4_6 5))
((wy_4_6 7))
((wx_4_7 7))
((wy_4_7 9))
((wx_4_8 5))
((wy_4_8 11))
((wx_4_9 3))
((wy_4_9 11))
((wx_4_10 1))
((wy_4_10 9))
((wx_4_11 1))
((wy_4_11 9))
((wx_4_12 3))
((wy_4_12 7))
((wx_4_13 5))
((wy_4_13 7))
((wx_4_14 7))
((wy_4_14 9))
((wx_4_15 5))
((wy_4_15 11))
((wx_4_16 3))
((wy_4_16 11))
((wx_4_17 1))
((wy_4_17 9))
((wx_4_18 3))
((wy_4_18 7))
((wx_4_19 5))
((wy_4_19 7))
((wx_4_20 7))
((wy_4_20 9))
((ch_1_1 20))
((ch_1_2 18))
((ch_1_3 16))
((ch_1_4 14))
((ch_1_5 12))
((ch_1_6 10))
((ch_1_7 20))
((ch_1_8 20))
((ch_1_9 18))
((ch_1_10 16))
((ch_1_11 14))
((ch_1_12 12))
((ch_1_13 10))
((ch_1_14 8))
((ch_1_15 6))
((ch_1_16 4))
((ch_1_17 2))
((ch_1_18 0))
((ch_1_19 2))
((ch_1_20 0))
((ch_2_1 20))
((ch_2_2 18))
((ch_2_3 17))
((ch_2_4 15))
((ch_2_5 13))
((ch_2_6 12))
((ch_2_7 10))
((ch_2_8 8))
((ch_2_9 7))
((ch_2_10 5))
((ch_2_11 3))
((ch_2_12 2))
((ch_2_13 12))
((ch_2_14 10))
((ch_2_15 9))
((ch_2_16 7))
((ch_2_17 5))
((ch_2_18 4))
((ch_2_19 2))
((ch_2_20 0))
((ch_3_1 20))
((ch_3_2 18))
((ch_3_3 16))
((ch_3_4 20))
((ch_3_5 20))
((ch_3_6 18))
((ch_3_7 16))
((ch_3_8 14))
((ch_3_9 12))
((ch_3_10 10))
((ch_3_11 8))
((ch_3_12 6))
((ch_3_13 4))
((ch_3_14 2))
((ch_3_15 10))
((ch_3_16 8))
((ch_3_17 6))
((ch_3_18 4))
((ch_3_19 2))
((ch_3_20 0))
((ch_4_1 20))
((ch_4_2 18))
((ch_4_3 17))
((ch_4_4 15))
((ch_4_5 13))
((ch_4_6 12))
((ch_4_7 10))
((ch_4_8 8))
((ch_4_9 7))
((ch_4_10 5))
((ch_4_11 15))
((ch_4_12 14))
((ch_4_13 12))
((ch_4_14 10))
((ch_4_15 9))
((ch_4_16 7))
((ch_4_17 5))
((ch_4_18 4))
((ch_4_19 2))
((ch_4_20 0))
((rechcount_1_1 0))
((rechcount_1_2 0))
((rechcount_1_3 0))
((rechcount_1_4 0))
((rechcount_1_5 0))
((rechcount_1_6 1))
((rechcount_1_7 0))
((rechcount_1_8 0))
((rechcount_1_9 0))
((rechcount_1_10 0))
((rechcount_1_11 0))
((rechcount_1_12 0))
((rechcount_1_13 0))
((rechcount_1_14 0))
((rechcount_1_15 0))
((rechcount_1_16 0))
((rechcount_1_17 0))
((rechcount_1_18 1))
((rechcount_1_19 0))
((rechcount_2_1 0))
((rechcount_2_2 0))
((rechcount_2_3 0))
((rechcount_2_4 0))
((rechcount_2_5 0))
((rechcount_2_6 0))
((rechcount_2_7 0))
((rechcount_2_8 0))
((rechcount_2_9 0))
((rechcount_2_10 0))
((rechcount_2_11 0))
((rechcount_2_12 1))
((rechcount_2_13 0))
((rechcount_2_14 0))
((rechcount_2_15 0))
((rechcount_2_16 0))
((rechcount_2_17 0))
((rechcount_2_18 0))
((rechcount_2_19 0))
((rechcount_3_1 0))
((rechcount_3_2 0))
((rechcount_3_3 1))
((rechcount_3_4 0))
((rechcount_3_5 0))
((rechcount_3_6 0))
((rechcount_3_7 0))
((rechcount_3_8 0))
((rechcount_3_9 0))
((rechcount_3_10 0))
((rechcount_3_11 0))
((rechcount_3_12 0))
((rechcount_3_13 0))
((rechcount_3_14 1))
((rechcount_3_15 0))
((rechcount_3_16 0))
((rechcount_3_17 0))
((rechcount_3_18 0))
((rechcount_3_19 0))
((rechcount_4_1 0))
((rechcount_4_2 0))
((rechcount_4_3 0))
((rechcount_4_4 0))
((rechcount_4_5 0))
((rechcount_4_6 0))
((rechcount_4_7 0))
((rechcount_4_8 0))
((rechcount_4_9 0))
((rechcount_4_10 1))
((rechcount_4_11 0))
((rechcount_4_12 0))
((rechcount_4_13 0))
((rechcount_4_14 0))
((rechcount_4_15 0))
((rechcount_4_16 0))
((rechcount_4_17 0))
((rechcount_4_18 0))
((rechcount_4_19 0))
((waitcount_1_1 0))
((waitcount_1_2 0))
((waitcount_1_3 0))
((waitcount_1_4 0))
((waitcount_1_5 0))
((waitcount_1_6 1))
((waitcount_1_7 1))
((waitcount_1_8 0))
((waitcount_1_9 0))
((waitcount_1_10 0))
((waitcount_1_11 0))
((waitcount_1_12 0))
((waitcount_1_13 0))
((waitcount_1_14 0))
((waitcount_1_15 0))
((waitcount_1_16 0))
((waitcount_1_17 0))
((waitcount_1_18 1))
((waitcount_1_19 0))
((waitcount_2_1 0))
((waitcount_2_2 0))
((waitcount_2_3 0))
((waitcount_2_4 0))
((waitcount_2_5 0))
((waitcount_2_6 0))
((waitcount_2_7 0))
((waitcount_2_8 0))
((waitcount_2_9 0))
((waitcount_2_10 0))
((waitcount_2_11 0))
((waitcount_2_12 1))
((waitcount_2_13 0))
((waitcount_2_14 0))
((waitcount_2_15 0))
((waitcount_2_16 0))
((waitcount_2_17 0))
((waitcount_2_18 0))
((waitcount_2_19 0))
((waitcount_3_1 0))
((waitcount_3_2 0))
((waitcount_3_3 1))
((waitcount_3_4 1))
((waitcount_3_5 0))
((waitcount_3_6 0))
((waitcount_3_7 0))
((waitcount_3_8 0))
((waitcount_3_9 0))
((waitcount_3_10 0))
((waitcount_3_11 0))
((waitcount_3_12 0))
((waitcount_3_13 0))
((waitcount_3_14 1))
((waitcount_3_15 0))
((waitcount_3_16 0))
((waitcount_3_17 0))
((waitcount_3_18 0))
((waitcount_3_19 0))
((waitcount_4_1 0))
((waitcount_4_2 0))
((waitcount_4_3 0))
((waitcount_4_4 0))
((waitcount_4_5 0))
((waitcount_4_6 0))
((waitcount_4_7 0))
((waitcount_4_8 0))
((waitcount_4_9 0))
((waitcount_4_10 1))
((waitcount_4_11 0))
((waitcount_4_12 0))
((waitcount_4_13 0))
((waitcount_4_14 0))
((waitcount_4_15 0))
((waitcount_4_16 0))
((waitcount_4_17 0))
((waitcount_4_18 0))
((waitcount_4_19 0))
((rechassigned_1_1 1))
((rechassigned_1_2 2))
((rechassigned_1_3 1))
((rechassigned_1_4 1))
((rechassigned_1_5 2))
((rechassigned_1_6 1))
((rechassigned_1_7 1))
((rechassigned_1_8 1))
((rechassigned_1_9 1))
((rechassigned_1_10 2))
((rechassigned_1_11 2))
((rechassigned_1_12 2))
((rechassigned_1_13 1))
((rechassigned_1_14 1))
((rechassigned_1_15 1))
((rechassigned_1_16 1))
((rechassigned_1_17 2))
((rechassigned_1_18 1))
((rechassigned_1_19 1))
((rechassigned_2_1 1))
((rechassigned_2_2 1))
((rechassigned_2_3 1))
((rechassigned_2_4 1))
((rechassigned_2_5 2))
((rechassigned_2_6 1))
((rechassigned_2_7 1))
((rechassigned_2_8 2))
((rechassigned_2_9 1))
((rechassigned_2_10 1))
((rechassigned_2_11 1))
((rechassigned_2_12 2))
((rechassigned_2_13 1))
((rechassigned_2_14 1))
((rechassigned_2_15 2))
((rechassigned_2_16 2))
((rechassigned_2_17 2))
((rechassigned_2_18 1))
((rechassigned_2_19 1))
((rechassigned_3_1 1))
((rechassigned_3_2 2))
((rechassigned_3_3 2))
((rechassigned_3_4 1))
((rechassigned_3_5 1))
((rechassigned_3_6 1))
((rechassigned_3_7 1))
((rechassigned_3_8 1))
((rechassigned_3_9 2))
((rechassigned_3_10 1))
((rechassigned_3_11 1))
((rechassigned_3_12 2))
((rechassigned_3_13 1))
((rechassigned_3_14 2))
((rechassigned_3_15 2))
((rechassigned_3_16 1))
((rechassigned_3_17 1))
((rechassigned_3_18 2))
((rechassigned_3_19 1))
((rechassigned_4_1 1))
((rechassigned_4_2 1))
((rechassigned_4_3 1))
((rechassigned_4_4 1))
((rechassigned_4_5 1))
((rechassigned_4_6 1))
((rechassigned_4_7 1))
((rechassigned_4_8 1))
((rechassigned_4_9 1))
((rechassigned_4_10 1))
((rechassigned_4_11 1))
((rechassigned_4_12 2))
((rechassigned_4_13 1))
((rechassigned_4_14 1))
((rechassigned_4_15 1))
((rechassigned_4_16 2))
((rechassigned_4_17 1))
((rechassigned_4_18 1))
((rechassigned_4_19 1))
((total_rech 0))
